num_offers = 40;
num_halls = 10;
start=[45,55,29,17,32,12,15,24,51,78,16,56,17,9,61,3,57,73,25,48,21,85,71,51,14,10,36,42,49,14,39,20,77,9,52,76,28,13,4,58];
end=[99,88,35,37,47,74,38,40,66,98,75,70,91,76,89,84,70,76,46,87,79,99,80,95,20,47,54,71,100,37,50,41,93,86,71,98,77,89,55,73];
price=[4081,508,204,642,788,638,2109,176,429,633,3414,235,1021,766,1427,7083,558,183,550,669,924,424,543,4156,467,2342,1001,2880,1963,402,1113,223,1548,2422,698,1514,2879,4463,4198,261];
requirement=[574,870,806,917,460,832,264,492,533,328,254,700,475,928,458,785,948,338,971,319,695,868,557,477,383,593,711,823,724,363,975,344,954,836,510,443,789,883,557,213];
capacity=[608,934,542,316,991,555,258,555,361,991];
